% Derived from TSPLIB (Gerhard Reinelt, 1991); preprocessing and file structure by the authors.
% SPDX-License-Identifier: MIT
% Note: MIT covers the preprocessing and file structure only, not the underlying benchmark data.

N = 70;
P = 197;
T = 128;
E = 187;

u_dual_edges = [1, 1, 2, 2, 3, 3, 4, 4, 5, 5, 6, 6, 6, 7, 7, 8, 8, 8, 9, 9, 10, 10, 10, 11, 11, 12, 12, 12, 13, 13, 14, 14, 15, 15, 16, 17, 17, 18, 18, 18, 19, 19, 20, 21, 21, 22, 23, 23, 24, 25, 26, 27, 28, 28, 29, 30, 30, 30, 31, 32, 32, 33, 33, 34, 34, 36, 36, 36, 37, 37, 38, 38, 40, 41, 42, 42, 43, 44, 44, 45, 45, 46, 47, 48, 48, 49, 49, 50, 51, 51, 51, 52, 52, 53, 54, 54, 55, 55, 55, 56, 56, 57, 57, 58, 59, 60, 60, 61, 62, 62, 64, 65, 66, 66, 67, 68, 69, 70, 70, 71, 72, 73, 73, 74, 75, 77, 77, 77, 78, 79, 80, 80, 81, 82, 82, 83, 84, 84, 85, 86, 89, 89, 90, 91, 91, 93, 95, 95, 96, 97, 98, 99, 99, 100, 100, 101, 102, 103, 105, 105, 106, 107, 108, 109, 111, 111, 112, 113, 114, 114, 115, 115, 117, 117, 118, 119, 119, 120, 120, 121, 122, 123, 124, 124, 125, 126, 127];
v_dual_edges = [41, 2, 3, 4, 40, 34, 5, 11, 35, 14, 16, 21, 17, 22, 23, 9, 88, 13, 61, 25, 103, 29, 48, 66, 85, 20, 62, 56, 60, 58, 67, 31, 16, 45, 46, 71, 73, 70, 19, 79, 20, 109, 74, 22, 65, 26, 26, 24, 25, 27, 27, 64, 43, 29, 42, 81, 31, 33, 32, 105, 68, 39, 35, 35, 38, 39, 37, 78, 83, 112, 39, 40, 41, 82, 43, 99, 117, 50, 47, 46, 47, 91, 93, 49, 50, 90, 53, 94, 95, 52, 97, 53, 72, 54, 96, 104, 59, 69, 107, 108, 57, 58, 63, 59, 84, 63, 61, 64, 76, 63, 65, 75, 86, 67, 68, 69, 87, 71, 72, 92, 89, 74, 75, 76, 76, 78, 79, 80, 102, 98, 81, 110, 106, 83, 121, 113, 87, 88, 86, 87, 92, 90, 94, 93, 92, 94, 96, 97, 100, 98, 101, 115, 103, 101, 104, 102, 111, 104, 106, 107, 110, 108, 109, 110, 116, 112, 113, 114, 116, 119, 116, 124, 125, 118, 128, 120, 121, 123, 126, 122, 123, 127, 126, 125, 128, 127, 128];

subtree_node_indices = [42, 43, 28, 29, 33, 34, 35, 38, 39, 68, 69, 105, 107, 55, 32, 33, 36, 39, 77, 78, 80, 81, 30, 97, 98, 100, 101, 95, 96, 77, 109, 79, 80, 110, 18, 19, 33, 35, 5, 14, 30, 31, 67, 68, 14, 31, 32, 65, 75, 76, 60, 61, 62, 63, 64, 97, 51, 95, 44, 47, 50, 93, 94, 70, 71, 73, 74, 17, 18, 19, 20, 124, 125, 126, 127, 128, 69, 84, 87, 55, 59, 1, 2, 3, 40, 41, 99, 103, 10, 42, 29, 74, 76, 12, 20, 62, 81, 106, 110, 80, 2, 3, 4, 5, 34, 35, 84, 85, 86, 87, 88, 73, 74, 75, 76, 111, 112, 113, 114, 116, 99, 42, 43, 115, 117, 124, 125, 34, 3, 38, 40, 24, 7, 23, 66, 67, 4, 5, 11, 14, 8, 9, 13, 60, 61, 66, 67, 68, 69, 86, 87, 125, 117, 118, 128, 8, 13, 84, 88, 58, 59, 123, 126, 127, 120, 105, 106, 81, 30, 31, 32, 6, 71, 46, 16, 17, 91, 92, 65, 6, 73, 75, 17, 21, 1, 41, 82, 121, 122, 43, 28, 117, 118, 103, 104, 10, 48, 49, 53, 54, 114, 115, 116, 119, 120, 124, 126, 26, 22, 7, 23, 9, 25, 27, 61, 64, 108, 12, 109, 19, 20, 56, 105, 106, 107, 108, 109, 110, 12, 56, 57, 62, 63, 107, 108, 55, 56, 57, 58, 59, 23, 24, 25, 26, 27, 8, 9, 88, 24, 25, 99, 100, 101, 102, 103, 104, 111, 115, 116, 47, 44, 45, 15, 66, 11, 85, 86, 51, 52, 53, 54, 95, 96, 72, 49, 52, 53, 89, 90, 97, 98, 70, 72, 79, 18, 51, 52, 98, 101, 102, 77, 78, 79, 45, 46, 15, 16, 1, 2, 4, 11, 85, 89, 90, 91, 92, 93, 94, 36, 37, 38, 39, 40, 41, 82, 83, 100, 104, 54, 96, 113, 82, 83, 114, 119, 121, 70, 71, 72, 89, 92, 65, 21, 22, 26, 27, 64, 6, 7, 15, 16, 21, 22, 113, 83, 37, 112, 10, 44, 48, 50, 28, 29, 48, 49, 50, 90, 94, 36, 37, 102, 78, 111, 112, 45, 46, 47, 91, 93, 13, 57, 58, 60, 63, 119, 120, 121, 122, 123, 118, 122, 123, 127, 128];
subtree_node_indices_start = [1, 5, 10, 16, 24, 30, 37, 43, 48, 56, 59, 64, 72, 77, 82, 87, 92, 97, 101, 107, 112, 116, 121, 128, 132, 135, 141, 146, 152, 156, 162, 166, 172, 179, 185, 190, 194, 201, 208, 212, 217, 223, 229, 234, 241, 246, 251, 260, 264, 268, 274, 280, 288, 294, 298, 303, 309, 317, 321, 327, 332, 338, 344, 348, 354, 359, 365, 370, 375, 380];
subtree_node_indices_length = [4, 5, 6, 8, 6, 7, 6, 5, 8, 3, 5, 8, 5, 5, 5, 5, 5, 4, 6, 5, 4, 5, 7, 4, 3, 6, 5, 6, 4, 6, 4, 6, 7, 6, 5, 4, 7, 7, 4, 5, 6, 6, 5, 7, 5, 5, 9, 4, 4, 6, 6, 8, 6, 4, 5, 6, 8, 4, 6, 5, 6, 6, 4, 6, 5, 6, 5, 5, 5, 5];

subtree_edge_indices = [53, 54, 55, 75, 62, 63, 64, 65, 71, 60, 61, 98, 99, 116, 160, 56, 58, 62, 66, 68, 126, 128, 131, 147, 148, 149, 150, 151, 154, 39, 40, 42, 127, 128, 132, 164, 9, 10, 32, 57, 58, 63, 31, 32, 59, 61, 115, 106, 107, 108, 109, 110, 111, 112, 125, 89, 91, 148, 78, 79, 83, 88, 146, 36, 37, 38, 39, 41, 43, 118, 122, 183, 184, 185, 186, 187, 97, 98, 105, 117, 137, 1, 2, 3, 5, 73, 21, 22, 55, 76, 153, 26, 27, 43, 109, 124, 131, 132, 133, 161, 3, 4, 6, 7, 9, 64, 137, 138, 139, 140, 122, 123, 124, 125, 165, 166, 167, 168, 169, 75, 76, 77, 152, 172, 173, 184, 5, 6, 65, 72, 15, 48, 7, 8, 10, 24, 31, 114, 16, 18, 19, 29, 107, 113, 114, 115, 116, 117, 140, 173, 174, 175, 185, 17, 18, 30, 104, 105, 138, 178, 179, 182, 186, 56, 57, 59, 60, 133, 159, 11, 13, 35, 36, 82, 120, 145, 12, 13, 37, 45, 112, 123, 1, 74, 135, 180, 53, 77, 174, 21, 23, 84, 87, 94, 96, 158, 169, 170, 171, 172, 176, 179, 183, 14, 15, 46, 47, 19, 20, 50, 52, 108, 26, 28, 41, 42, 100, 163, 159, 160, 161, 162, 163, 164, 27, 28, 101, 103, 110, 97, 99, 100, 101, 102, 104, 162, 47, 48, 49, 50, 51, 16, 17, 20, 49, 152, 153, 154, 155, 156, 157, 158, 165, 171, 34, 79, 81, 24, 25, 113, 139, 89, 90, 92, 94, 95, 147, 86, 87, 92, 93, 121, 142, 38, 40, 90, 91, 93, 119, 130, 150, 126, 127, 129, 130, 151, 156, 33, 34, 35, 80, 2, 4, 8, 25, 141, 142, 143, 144, 145, 146, 66, 67, 69, 71, 72, 73, 74, 134, 95, 96, 149, 155, 134, 135, 136, 168, 170, 177, 118, 119, 120, 121, 141, 44, 45, 46, 51, 52, 111, 11, 12, 14, 33, 44, 69, 70, 136, 167, 22, 23, 54, 78, 85, 84, 85, 86, 88, 143, 67, 68, 70, 129, 157, 166, 80, 81, 82, 83, 144, 29, 30, 102, 103, 106, 176, 177, 178, 180, 181, 175, 181, 182, 187];
subtree_edge_indices_start = [1, 5, 10, 16, 24, 30, 37, 43, 48, 56, 59, 64, 72, 77, 82, 87, 92, 97, 101, 107, 111, 115, 120, 127, 131, 133, 139, 144, 150, 154, 160, 164, 170, 177, 183, 187, 190, 197, 204, 208, 213, 219, 225, 230, 237, 242, 246, 255, 258, 262, 268, 274, 282, 288, 292, 296, 302, 310, 314, 320, 325, 331, 336, 340, 345, 350, 356, 361, 366, 371];
subtree_edges_length = [4, 5, 6, 8, 6, 7, 6, 5, 8, 3, 5, 8, 5, 5, 5, 5, 5, 4, 6, 4, 4, 5, 7, 4, 2, 6, 5, 6, 4, 6, 4, 6, 7, 6, 4, 3, 7, 7, 4, 5, 6, 6, 5, 7, 5, 4, 9, 3, 4, 6, 6, 8, 6, 4, 4, 6, 8, 4, 6, 5, 6, 5, 4, 5, 5, 6, 5, 5, 5, 4];

u_of_subtree_edges = [2, 3, 1, 1, 1, 1, 2, 2, 4, 3, 1, 2, 4, 1, 3, 7, 1, 1, 2, 2, 4, 4, 6, 5, 1, 3, 1, 2, 3, 6, 3, 2, 1, 1, 4, 2, 2, 3, 4, 5, 1, 1, 1, 3, 4, 2, 1, 4, 4, 5, 3, 6, 1, 1, 2, 2, 1, 1, 1, 1, 2, 3, 4, 2, 3, 1, 6, 7, 4, 1, 3, 1, 1, 2, 3, 4, 4, 1, 2, 1, 2, 1, 1, 2, 3, 4, 2, 3, 4, 1, 1, 3, 3, 1, 2, 1, 1, 3, 1, 2, 1, 1, 2, 3, 4, 5, 1, 1, 2, 3, 1, 1, 2, 3, 1, 1, 2, 3, 4, 2, 1, 3, 1, 4, 5, 6, 2, 1, 1, 3, 2, 1, 3, 3, 4, 1, 2, 1, 1, 1, 2, 3, 4, 1, 1, 2, 3, 4, 5, 1, 2, 3, 1, 1, 1, 2, 5, 3, 3, 1, 2, 1, 2, 3, 4, 5, 1, 2, 1, 1, 1, 3, 2, 3, 2, 6, 2, 2, 3, 1, 1, 3, 1, 2, 3, 4, 1, 1, 3, 1, 3, 4, 5, 6, 2, 1, 1, 1, 2, 2, 4, 5, 6, 2, 3, 1, 1, 1, 1, 2, 3, 4, 2, 2, 4, 3, 1, 1, 1, 1, 2, 3, 4, 5, 1, 1, 2, 3, 4, 3, 1, 2, 4, 5, 6, 1, 1, 1, 2, 3, 4, 1, 1, 2, 4, 1, 1, 2, 2, 3, 4, 5, 7, 8, 3, 1, 1, 1, 2, 1, 3, 1, 1, 2, 3, 4, 5, 2, 2, 3, 1, 1, 5, 3, 5, 7, 1, 4, 3, 2, 1, 4, 4, 3, 1, 1, 2, 3, 1, 2, 1, 1, 2, 3, 4, 1, 1, 2, 3, 3, 5, 1, 1, 2, 3, 3, 5, 6, 7, 3, 2, 1, 1, 2, 2, 1, 1, 4, 5, 1, 1, 2, 3, 4, 2, 1, 3, 4, 5, 1, 1, 1, 2, 3, 5, 2, 3, 1, 1, 1, 1, 5, 2, 3, 1, 1, 2, 3, 4, 1, 1, 2, 3, 3, 5, 1, 1, 2, 3, 4, 1, 1, 2, 2, 4, 1, 1, 2, 3, 4, 1, 2, 3, 4];
v_of_subtree_edges = [3, 4, 4, 2, 5, 3, 3, 4, 5, 6, 6, 5, 5, 2, 4, 8, 8, 3, 3, 5, 5, 6, 7, 6, 5, 6, 2, 4, 4, 7, 6, 7, 3, 4, 5, 5, 3, 4, 6, 6, 5, 2, 3, 4, 5, 5, 2, 7, 5, 8, 6, 7, 8, 2, 3, 3, 2, 3, 3, 2, 4, 5, 5, 5, 5, 6, 7, 8, 8, 2, 4, 3, 2, 5, 4, 5, 5, 4, 5, 3, 3, 5, 2, 3, 4, 5, 3, 5, 5, 4, 2, 4, 5, 4, 5, 2, 4, 4, 2, 3, 2, 3, 5, 4, 6, 6, 4, 5, 3, 4, 2, 3, 4, 4, 5, 2, 3, 4, 5, 3, 2, 5, 4, 6, 7, 7, 4, 2, 3, 4, 3, 3, 4, 5, 6, 5, 6, 2, 2, 3, 5, 4, 5, 5, 2, 3, 4, 6, 6, 2, 3, 4, 4, 4, 2, 5, 6, 6, 4, 4, 4, 3, 3, 4, 5, 6, 6, 3, 2, 4, 5, 4, 5, 6, 7, 7, 6, 5, 5, 6, 4, 4, 2, 3, 4, 5, 2, 3, 4, 3, 4, 5, 6, 7, 7, 2, 3, 4, 3, 6, 5, 7, 7, 3, 4, 2, 4, 4, 2, 3, 5, 5, 5, 6, 5, 4, 6, 3, 2, 3, 6, 4, 5, 6, 4, 2, 3, 5, 5, 7, 3, 4, 5, 6, 7, 2, 4, 2, 3, 5, 5, 2, 3, 5, 5, 8, 5, 3, 6, 4, 7, 6, 9, 9, 4, 2, 3, 2, 3, 4, 4, 5, 2, 3, 4, 6, 6, 6, 4, 4, 3, 5, 6, 6, 6, 8, 7, 8, 4, 5, 2, 5, 6, 5, 6, 2, 3, 4, 3, 4, 2, 2, 3, 4, 5, 4, 2, 6, 5, 4, 6, 4, 2, 8, 4, 5, 6, 7, 8, 4, 3, 4, 2, 3, 6, 3, 4, 5, 6, 2, 3, 5, 4, 5, 3, 2, 4, 5, 6, 6, 4, 5, 6, 4, 6, 3, 4, 2, 4, 6, 3, 6, 4, 4, 2, 3, 4, 5, 5, 2, 4, 6, 4, 5, 6, 2, 3, 4, 5, 5, 4, 3, 3, 5, 5, 2, 3, 5, 4, 5, 5, 3, 4, 5];

triangle_perimeters = [158, 101, 47, 61, 45, 54, 74, 62, 33, 104, 33, 29, 64, 42, 46, 39, 32, 75, 64, 61, 71, 61, 26, 42, 38, 26, 24, 117, 113, 36, 40, 31, 26, 53, 29, 67, 37, 50, 57, 18, 63, 28, 24, 66, 31, 39, 23, 94, 65, 56, 28, 46, 50, 20, 50, 48, 36, 36, 41, 53, 38, 37, 50, 29, 56, 34, 23, 29, 43, 33, 29, 42, 17, 41, 41, 50, 60, 69, 69, 28, 31, 62, 38, 24, 73, 62, 40, 74, 44, 27, 43, 48, 26, 29, 26, 35, 23, 39, 25, 46, 52, 64, 28, 21, 33, 32, 53, 50, 24, 25, 52, 16, 16, 22, 37, 47, 36, 36, 27, 21, 39, 34, 16, 34, 27, 27, 18, 14];
dual_edge_costs = [29, 50, 23, 28, 4, 20, 17, 16, 11, 17, 18, 22, 14, 26, 11, 6, 30, 26, 13, 14, 12, 49, 43, 9, 8, 14, 4, 11, 21, 17, 8, 17, 11, 13, 10, 10, 8, 15, 30, 30, 28, 6, 19, 26, 23, 9, 7, 8, 15, 9, 10, 5, 4, 55, 9, 14, 10, 12, 13, 6, 12, 9, 5, 13, 20, 25, 17, 25, 14, 6, 23, 7, 7, 27, 9, 10, 11, 24, 9, 13, 5, 16, 9, 31, 20, 10, 24, 12, 9, 13, 6, 16, 17, 10, 9, 1, 16, 16, 18, 20, 17, 4, 15, 15, 10, 18, 14, 11, 16, 17, 13, 20, 14, 11, 4, 13, 14, 9, 9, 10, 16, 8, 1, 14, 20, 26, 20, 14, 18, 19, 4, 10, 13, 18, 17, 6, 7, 7, 29, 19, 19, 9, 8, 8, 19, 9, 11, 6, 15, 11, 9, 9, 6, 21, 10, 22, 24, 10, 13, 14, 6, 21, 9, 9, 22, 6, 4, 6, 8, 8, 17, 11, 13, 12, 6, 9, 10, 2, 10, 12, 8, 6, 11, 12, 2, 6, 6];

pe_triangle_incidence_indices = [1, 41, 1, 2, 1, 2, 3, 2, 4, 3, 40, 3, 34, 4, 5, 4, 11, 5, 35, 5, 14, 6, 16, 6, 21, 6, 17, 7, 22, 7, 7, 23, 8, 9, 8, 88, 8, 13, 9, 61, 9, 25, 10, 103, 10, 29, 10, 48, 11, 66, 11, 85, 12, 20, 12, 62, 12, 56, 13, 60, 13, 58, 14, 67, 14, 31, 15, 16, 15, 45, 15, 16, 46, 17, 71, 17, 73, 18, 70, 18, 19, 18, 79, 19, 20, 19, 109, 20, 74, 21, 22, 21, 65, 22, 26, 23, 26, 23, 24, 24, 25, 24, 25, 27, 26, 27, 27, 64, 28, 43, 28, 28, 29, 29, 42, 30, 81, 30, 31, 30, 33, 31, 32, 32, 105, 32, 68, 33, 39, 33, 35, 34, 35, 34, 38, 36, 39, 36, 37, 36, 78, 37, 83, 37, 112, 38, 39, 38, 40, 40, 41, 41, 82, 42, 43, 42, 99, 43, 117, 44, 50, 44, 44, 47, 45, 46, 45, 47, 46, 91, 47, 93, 48, 49, 48, 50, 49, 90, 49, 53, 50, 94, 51, 95, 51, 52, 51, 97, 52, 53, 52, 72, 53, 54, 54, 96, 54, 104, 55, 59, 55, 69, 55, 107, 56, 108, 56, 57, 57, 58, 57, 63, 58, 59, 59, 84, 60, 63, 60, 61, 61, 64, 62, 76, 62, 63, 64, 65, 65, 75, 66, 86, 66, 67, 67, 68, 68, 69, 69, 87, 70, 71, 70, 72, 71, 92, 72, 89, 73, 74, 73, 75, 74, 76, 75, 76, 77, 78, 77, 79, 77, 80, 78, 102, 79, 98, 80, 81, 80, 110, 81, 106, 82, 83, 82, 121, 83, 113, 84, 87, 84, 88, 85, 86, 85, 86, 87, 88, 89, 92, 89, 90, 90, 94, 91, 93, 91, 92, 93, 94, 95, 96, 95, 97, 96, 100, 97, 98, 98, 101, 99, 115, 99, 103, 100, 101, 100, 104, 101, 102, 102, 111, 103, 104, 105, 106, 105, 107, 106, 110, 107, 108, 108, 109, 109, 110, 111, 116, 111, 112, 112, 113, 113, 114, 114, 116, 114, 119, 115, 116, 115, 124, 117, 125, 117, 118, 118, 128, 118, 119, 120, 119, 121, 120, 123, 120, 126, 121, 122, 122, 123, 122, 123, 127, 124, 126, 124, 125, 125, 128, 126, 127, 127, 128];
pe_triangle_incidence_start = [1, 3, 5, 6, 8, 10, 12, 14, 16, 18, 20, 22, 24, 26, 28, 30, 31, 33, 35, 37, 39, 41, 43, 45, 47, 49, 51, 53, 55, 57, 59, 61, 63, 65, 67, 69, 71, 72, 74, 76, 78, 80, 82, 84, 86, 88, 90, 92, 94, 96, 98, 100, 102, 103, 105, 107, 109, 111, 112, 114, 116, 118, 120, 122, 124, 126, 128, 130, 132, 134, 136, 138, 140, 142, 144, 146, 148, 150, 152, 154, 156, 158, 160, 162, 163, 165, 167, 169, 171, 173, 175, 177, 179, 181, 183, 185, 187, 189, 191, 193, 195, 197, 199, 201, 203, 205, 207, 209, 211, 213, 215, 217, 219, 221, 223, 225, 227, 229, 231, 233, 235, 237, 239, 241, 243, 245, 247, 249, 251, 253, 255, 257, 259, 261, 263, 265, 267, 269, 271, 273, 275, 277, 279, 281, 283, 285, 286, 288, 289, 291, 293, 295, 297, 299, 301, 303, 305, 307, 309, 311, 313, 315, 317, 319, 321, 323, 325, 327, 329, 331, 333, 335, 337, 339, 341, 343, 345, 347, 349, 351, 353, 355, 357, 359, 360, 362, 364, 366, 368, 370, 372, 373, 375, 377, 379, 381, 383];
pe_triangle_incidence_length = [2, 2, 1, 2, 2, 2, 2, 2, 2, 2, 2, 2, 2, 2, 2, 1, 2, 2, 2, 2, 2, 2, 2, 2, 2, 2, 2, 2, 2, 2, 2, 2, 2, 2, 2, 2, 1, 2, 2, 2, 2, 2, 2, 2, 2, 2, 2, 2, 2, 2, 2, 2, 1, 2, 2, 2, 2, 1, 2, 2, 2, 2, 2, 2, 2, 2, 2, 2, 2, 2, 2, 2, 2, 2, 2, 2, 2, 2, 2, 2, 2, 2, 2, 1, 2, 2, 2, 2, 2, 2, 2, 2, 2, 2, 2, 2, 2, 2, 2, 2, 2, 2, 2, 2, 2, 2, 2, 2, 2, 2, 2, 2, 2, 2, 2, 2, 2, 2, 2, 2, 2, 2, 2, 2, 2, 2, 2, 2, 2, 2, 2, 2, 2, 2, 2, 2, 2, 2, 2, 2, 2, 2, 2, 2, 2, 1, 2, 1, 2, 2, 2, 2, 2, 2, 2, 2, 2, 2, 2, 2, 2, 2, 2, 2, 2, 2, 2, 2, 2, 2, 2, 2, 2, 2, 2, 2, 2, 2, 2, 2, 2, 2, 2, 1, 2, 2, 2, 2, 2, 2, 1, 2, 2, 2, 2, 2, 2];
